
Gurobi 8.1.0 (linux64, Python) logging started Wed May 22 10:25:19 2019

Academic license - for non-commercial use only
Parameter Threads unchanged
   Value: 0  Min: 0  Max: 1024  Default: 0
Changed value of parameter Crossover to 0
   Prev: -1  Min: -1  Max: 5  Default: -1
Changed value of parameter Method to 2
   Prev: -1  Min: -1  Max: 5  Default: -1
Warning for adding constraints: zero or small (< 1e-13) coefficients, ignored
Optimize a model with 8280 rows, 85671 columns and 709355826 nonzeros
Coefficient statistics:
  Matrix range     [1e-13, 2e-05]
  Objective range  [1e-01, 1e+00]
  Bounds range     [1e+00, 1e+00]
  RHS range        [1e-05, 1e-05]
Presolve removed 0 rows and 0 columns (presolve time = 22s) ...
Presolve removed 0 rows and 0 columns (presolve time = 33s) ...
Presolve removed 0 rows and 0 columns (presolve time = 64s) ...
Presolve removed 0 rows and 0 columns (presolve time = 144s) ...
Presolve removed 4140 rows and 0 columns (presolve time = 157s) ...
Presolve removed 4140 rows and 0 columns
Presolve time: 158.05s
Presolved: 4140 rows, 89811 columns, 354682052 nonzeros
Ordering time: 0.00s

Barrier statistics:
 AA' NZ     : 8.568e+06
 Factor NZ  : 8.572e+06 (roughly 100 MBytes of memory)
 Factor Ops : 2.366e+10 (roughly 4 seconds per iteration)
 Threads    : 24

                  Objective                Residual
Iter       Primal          Dual         Primal    Dual     Compl     Time
   0   2.45799064e+08  2.16788373e+05  1.21e+02 3.64e-12  7.38e+03   205s
   1   2.37909550e+05  2.16730416e+05  9.79e-02 8.00e-11  6.95e+00   215s
   2   8.01631062e+04  1.85519943e+05  1.98e-02 8.11e-09  1.85e+00   226s
   3   5.77438202e+04  1.12693274e+05  7.61e-03 2.90e-08  6.27e-01   238s
   4   5.30109446e+04  7.20818047e+04  4.17e-03 3.71e-08  2.27e-01   251s
   5   5.19637240e+04  6.69579339e+04  3.17e-03 3.77e-08  1.70e-01   263s
   6   5.12229905e+04  6.61992097e+04  2.54e-03 3.69e-08  1.52e-01   274s
   7   5.07139762e+04  5.88932680e+04  2.13e-03 4.53e-08  9.76e-02   284s
   8   4.97667267e+04  5.41564784e+04  1.41e-03 8.71e-08  5.66e-02   294s
   9   4.90427268e+04  5.16648736e+04  8.94e-04 1.04e-07  3.43e-02   303s
  10   4.86145591e+04  5.06320586e+04  5.80e-04 1.20e-07  2.38e-02   314s
  11   4.85602947e+04  4.96210619e+04  5.23e-04 1.08e-07  1.70e-02   326s
  12   4.83439774e+04  4.93473448e+04  3.48e-04 8.55e-08  1.29e-02   337s
  13   4.83008019e+04  4.91802278e+04  3.14e-04 7.47e-08  1.15e-02   347s
  14   4.82513599e+04  4.88837052e+04  2.75e-04 5.84e-08  9.28e-03   358s
  15   4.81955514e+04  4.86850442e+04  2.21e-04 4.43e-08  7.34e-03   370s
  16   4.81374192e+04  4.85880812e+04  1.63e-04 4.11e-08  5.92e-03   382s
  17   4.81336293e+04  4.85502984e+04  1.60e-04 4.81e-08  5.66e-03   392s
  18   4.80852240e+04  4.85038112e+04  1.14e-04 5.55e-08  4.71e-03   404s
  19   4.80564021e+04  4.83568913e+04  8.67e-05 4.87e-08  3.48e-03   416s
  20   4.80448083e+04  4.83390287e+04  7.45e-05 4.76e-08  3.19e-03   427s
  21   4.80370928e+04  4.82917758e+04  6.66e-05 5.49e-08  2.80e-03   437s
  22   4.80288688e+04  4.82176481e+04  5.77e-05 7.59e-08  2.25e-03   448s
  23   4.80199196e+04  4.81791399e+04  4.51e-05 1.58e-07  1.82e-03   460s
  24   4.80171863e+04  4.81491179e+04  4.11e-05 1.96e-07  1.59e-03   471s
  25   4.80151381e+04  4.81350908e+04  3.74e-05 7.89e-08  1.45e-03   481s
  26   4.80129614e+04  4.81148812e+04  3.13e-05 6.38e-08  1.22e-03   492s
  27   4.80111693e+04  4.81011479e+04  2.61e-05 4.66e-08  1.04e-03   504s
  28   4.80100303e+04  4.80933686e+04  2.22e-05 7.26e-08  9.24e-04   515s
  29   4.80092806e+04  4.80834590e+04  1.97e-05 7.68e-08  8.22e-04   525s
  30   4.80084388e+04  4.80740256e+04  1.44e-05 6.10e-08  6.64e-04   536s
  31   4.80083472e+04  4.80546188e+04  1.24e-05 2.26e-07  5.15e-04   547s
  32   4.80085952e+04  4.80486884e+04  1.04e-05 8.38e-08  4.38e-04   559s
  33   4.80087194e+04  4.80437185e+04  9.00e-06 7.96e-08  3.82e-04   568s
  34   4.80092026e+04  4.80373108e+04  6.50e-06 5.94e-08  2.92e-04   579s
  35   4.80095063e+04  4.80311181e+04  5.50e-06 2.67e-07  2.34e-04   591s
  36   4.80098004e+04  4.80273072e+04  4.75e-06 1.15e-07  1.96e-04   602s
  37   4.80101443e+04  4.80244692e+04  3.90e-06 1.39e-07  1.61e-04   612s
  38   4.80104414e+04  4.80219459e+04  3.35e-06 1.37e-07  1.34e-04   623s
  39   4.80111092e+04  4.80189741e+04  2.28e-06 2.31e-07  9.11e-05   636s
  40   4.80115483e+04  4.80168500e+04  1.69e-06 5.78e-08  6.47e-05   647s
  41   4.80116662e+04  4.80157342e+04  1.49e-06 7.22e-08  5.36e-05   657s
  42   4.80119842e+04  4.80151093e+04  1.10e-06 1.20e-07  4.03e-05   668s
  43   4.80121784e+04  4.80141912e+04  8.02e-07 5.90e-08  2.78e-05   681s
  44   4.80123478e+04  4.80137803e+04  5.65e-07 1.52e-07  1.97e-05   692s
  45   4.80124346e+04  4.80135798e+04  4.37e-07 1.10e-07  1.55e-05   702s
  46   4.80125457e+04  4.80133585e+04  2.86e-07 1.45e-07  1.05e-05   713s
  47   4.80126648e+04  4.80130179e+04  1.37e-07 7.36e-08  4.82e-06   725s
  48   4.80127295e+04  4.80129323e+04  7.18e-08 6.68e-08  2.62e-06   736s
  49   4.80127557e+04  4.80128773e+04  4.72e-08 1.02e-07  1.66e-06   746s
  50   4.80127838e+04  4.80128358e+04  1.97e-08 9.83e-08  6.98e-07   757s
  51   4.80128063e+04  4.80128185e+04  4.59e-09 6.52e-08  1.63e-07   770s
  52   4.80128129e+04  4.80128157e+04  5.82e-10 1.06e-07  2.75e-08   781s
  53   4.80128138e+04  4.80128147e+04  1.07e-10 9.13e-08  7.31e-09   793s
  54   4.80128140e+04  4.80128141e+04  1.99e-11 1.08e-07  7.94e-10   806s

Barrier solved model in 54 iterations and 806.08 seconds
Optimal objective 4.80128140e+04

Optimize a model with 8280 rows, 85671 columns and 709355826 nonzeros
Coefficient statistics:
  Matrix range     [1e-13, 2e-05]
  Objective range  [1e-01, 1e+00]
  Bounds range     [1e+00, 1e+00]
  RHS range        [7e-06, 7e-06]
Presolve removed 0 rows and 0 columns (presolve time = 23s) ...
Presolve removed 0 rows and 0 columns (presolve time = 34s) ...
Presolve removed 0 rows and 0 columns (presolve time = 64s) ...
Presolve removed 0 rows and 0 columns (presolve time = 145s) ...
Presolve removed 4140 rows and 0 columns (presolve time = 158s) ...
Presolve removed 4140 rows and 0 columns
Presolve time: 159.08s
Presolved: 4140 rows, 89811 columns, 354682052 nonzeros
Ordering time: 0.00s

Barrier statistics:
 AA' NZ     : 8.568e+06
 Factor NZ  : 8.572e+06 (roughly 100 MBytes of memory)
 Factor Ops : 2.366e+10 (roughly 3 seconds per iteration)
 Threads    : 24

                  Objective                Residual
Iter       Primal          Dual         Primal    Dual     Compl     Time
   0   2.45799064e+08  2.14720638e+05  1.21e+02 7.28e-12  7.38e+03   206s
   1   2.46248188e+05  2.14663368e+05  1.02e-01 8.73e-11  7.19e+00   217s
   2   7.30277691e+04  1.78939680e+05  1.64e-02 9.28e-09  1.61e+00   228s
   3   5.92051916e+04  9.62228232e+04  8.40e-03 3.44e-08  5.23e-01   240s
   4   5.51709136e+04  7.52445356e+04  5.44e-03 6.74e-08  2.79e-01   253s
   5   5.32811301e+04  7.07116373e+04  3.96e-03 5.09e-08  2.13e-01   266s
   6   5.29001124e+04  6.99044738e+04  3.68e-03 4.99e-08  2.02e-01   277s
   7   5.19748338e+04  6.80969920e+04  3.03e-03 5.68e-08  1.76e-01   287s
   8   5.19205315e+04  6.60320301e+04  2.98e-03 6.98e-08  1.62e-01   297s
   9   5.13492150e+04  6.31981163e+04  2.62e-03 1.02e-07  1.38e-01   306s
  10   5.11957072e+04  5.75000203e+04  2.49e-03 1.38e-07  1.01e-01   317s
  11   5.05590433e+04  5.47729078e+04  2.09e-03 2.40e-07  7.97e-02   329s
  12   4.99544447e+04  5.27917135e+04  1.80e-03 5.37e-07  6.69e-02   340s
  13   4.95808674e+04  5.19021367e+04  1.64e-03 4.92e-07  6.05e-02   350s
  14   4.90356338e+04  5.05725748e+04  1.50e-03 4.55e-07  5.50e-02   361s
  15   4.83342661e+04  4.78366924e+04  1.29e-03 5.66e-06  4.17e-02   373s
  16   4.75752281e+04  4.65617408e+04  1.14e-03 5.45e-06  3.54e-02   384s
  17   4.70227458e+04  4.60676117e+04  1.02e-03 8.67e-06  3.20e-02   394s
  18   4.64094373e+04  4.54755770e+04  8.90e-04 1.40e-05  2.81e-02   405s
  19   4.59019721e+04  4.48446175e+04  7.89e-04 1.39e-05  2.44e-02   417s
  20   4.57188332e+04  4.46540551e+04  7.55e-04 1.21e-05  2.33e-02   428s
  21   4.55063196e+04  4.44999183e+04  7.17e-04 1.66e-05  2.23e-02   438s
  22   4.47048681e+04  4.40583493e+04  5.75e-04 9.12e-06  1.93e-02   449s
  23   4.44465539e+04  4.39694174e+04  5.32e-04 7.93e-06  1.86e-02   461s
  24   4.40651499e+04  4.34036450e+04  4.70e-04 2.53e-06  1.56e-02   472s
  25   4.37920410e+04  4.30602776e+04  4.27e-04 5.60e-06  1.38e-02   482s
  26   4.33638706e+04  4.28791194e+04  3.61e-04 2.68e-06  1.25e-02   492s
  27   4.27557074e+04  4.25195302e+04  2.68e-04 1.05e-05  1.02e-02   504s
  28   4.26405817e+04  4.23774448e+04  2.51e-04 5.29e-05  9.36e-03   515s
  29   4.25858738e+04  4.22707399e+04  2.43e-04 6.82e-05  8.77e-03   525s
  30   4.23668847e+04  4.20313000e+04  2.11e-04 2.83e-04  7.36e-03   536s
  31   4.20261328e+04  4.18497812e+04  1.61e-04 1.65e-04  6.13e-03   548s
  32   4.19127621e+04  4.17302586e+04  1.45e-04 1.04e-04  5.44e-03   559s
  33   4.18035675e+04  4.15695118e+04  1.30e-04 4.98e-06  4.52e-03   568s
  34   4.16567369e+04  4.14668456e+04  1.09e-04 3.70e-06  3.86e-03   580s
  35   4.15197661e+04  4.12964176e+04  9.00e-05 4.11e-06  2.85e-03   592s
  36   4.14029743e+04  4.12166118e+04  7.36e-05 5.90e-06  2.32e-03   603s
  37   4.13682402e+04  4.11355755e+04  6.87e-05 6.97e-06  1.85e-03   613s
  38   4.12937343e+04  4.11075197e+04  5.83e-05 5.33e-06  1.64e-03   624s
  39   4.12428886e+04  4.10605778e+04  5.11e-05 1.06e-05  1.33e-03   640s
  40   4.11840277e+04  4.10242445e+04  4.28e-05 1.12e-05  1.08e-03   653s
  41   4.11438600e+04  4.10074134e+04  3.72e-05 9.42e-06  9.56e-04   664s
  42   4.11115650e+04  4.10040515e+04  3.27e-05 9.66e-06  9.09e-04   677s
  43   4.10943887e+04  4.09894563e+04  3.03e-05 1.19e-05  8.14e-04   692s
  44   4.10567221e+04  4.09668647e+04  2.50e-05 1.46e-05  6.55e-04   707s
  45   4.10457705e+04  4.09542343e+04  2.35e-05 6.35e-06  5.75e-04   720s
  46   4.10271490e+04  4.09501975e+04  2.09e-05 1.08e-05  5.36e-04   733s
  47   4.10207940e+04  4.09475852e+04  2.00e-05 1.62e-05  5.16e-04   748s
  48   4.10183018e+04  4.09459899e+04  1.96e-05 1.70e-05  5.05e-04   762s
  49   4.09992562e+04  4.09313380e+04  1.70e-05 1.31e-05  4.06e-04   780s
  50   4.09824592e+04  4.09238814e+04  1.46e-05 7.45e-06  3.48e-04   797s
  51   4.09744754e+04  4.09146655e+04  1.34e-05 5.96e-06  2.89e-04   810s
  52   4.09671284e+04  4.09105596e+04  1.24e-05 7.87e-06  2.60e-04   822s
  53   4.09493218e+04  4.09059288e+04  9.93e-06 1.04e-05  2.18e-04   835s
  54   4.09378489e+04  4.09024963e+04  8.32e-06 2.26e-06  1.88e-04   847s
  55   4.09321300e+04  4.09003455e+04  7.50e-06 2.21e-06  1.71e-04   861s
  56   4.09197606e+04  4.08973295e+04  5.72e-06 3.13e-06  1.40e-04   874s
  57   4.09143161e+04  4.08949425e+04  4.93e-06 3.04e-06  1.21e-04   892s
  58   4.09102767e+04  4.08920798e+04  4.35e-06 2.83e-06  1.00e-04   910s
  59   4.09033927e+04  4.08910689e+04  3.35e-06 2.26e-06  8.67e-05   923s
  60   4.09011768e+04  4.08885978e+04  3.03e-06 5.28e-06  7.03e-05   937s
  61   4.08989636e+04  4.08881345e+04  2.71e-06 3.86e-06  6.52e-05   950s
  62   4.08984283e+04  4.08876638e+04  2.63e-06 4.95e-06  6.19e-05   963s
  63   4.08960348e+04  4.08869127e+04  2.28e-06 1.04e-05  5.48e-05   976s
  64   4.08946970e+04  4.08861097e+04  2.07e-06 1.33e-04  4.82e-05   991s
  65   4.08915683e+04  4.08843113e+04  1.60e-06 1.88e-05  3.36e-05  1011s
  66   4.08896035e+04  4.08834749e+04  1.29e-06 4.65e-06  2.59e-05  1029s
  67   4.08876745e+04  4.08830599e+04  9.96e-07 5.93e-06  2.05e-05  1046s
  68   4.08866002e+04  4.08828947e+04  8.31e-07 5.22e-06  1.79e-05  1061s
  69   4.08857071e+04  4.08826529e+04  6.94e-07 4.46e-06  1.52e-05  1074s
  70   4.08851826e+04  4.08823890e+04  6.14e-07 9.46e-05  1.29e-05  1087s
  71   4.08847809e+04  4.08821563e+04  5.52e-07 1.53e-04  1.10e-05  1099s
  72   4.08843538e+04  4.08820137e+04  4.85e-07 1.58e-04  9.46e-06  1112s
  73   4.08840780e+04  4.08819613e+04  4.41e-07 1.87e-04  8.68e-06  1126s
  74   4.08836362e+04  4.08817939e+04  3.71e-07 2.83e-04  6.96e-06  1141s
  75   4.08833510e+04  4.08816984e+04  3.25e-07 4.75e-04  5.88e-06  1156s
  76   4.08831818e+04  4.08816565e+04  2.98e-07 3.77e-04  5.34e-06  1171s
  77   4.08828205e+04  4.08816182e+04  2.40e-07 1.25e-04  4.46e-06  1182s
  78   4.08824880e+04  4.08815839e+04  1.86e-07 8.18e-05  3.63e-06  1196s
  79   4.08822751e+04  4.08815302e+04  1.52e-07 1.52e-05  2.93e-06  1211s
  80   4.08819733e+04  4.08814826e+04  1.03e-07 5.52e-05  2.06e-06  1226s
  81   4.08819050e+04  4.08814501e+04  9.22e-08 4.18e-05  1.75e-06  1237s
  82   4.08817897e+04  4.08814272e+04  7.37e-08 5.33e-05  1.40e-06  1249s
  83   4.08817034e+04  4.08814065e+04  5.96e-08 3.80e-05  1.11e-06  1263s
  84   4.08815973e+04  4.08813820e+04  4.22e-08 5.45e-05  7.56e-07  1278s
  85   4.08815213e+04  4.08813718e+04  2.95e-08 4.82e-05  5.37e-07  1294s
  86   4.08814980e+04  4.08813654e+04  2.57e-08 7.84e-05  4.55e-07  1311s
  87   4.08814621e+04  4.08813572e+04  1.98e-08 9.36e-06  3.36e-07  1327s
  88   4.08814122e+04  4.08813514e+04  1.16e-08 1.74e-04  2.01e-07  1342s
  89   4.08813820e+04  4.08813467e+04  6.65e-09 2.61e-05  1.12e-07  1363s
  90   4.08813650e+04  4.08813443e+04  3.83e-09 1.79e-04  6.20e-08  1377s
  91   4.08813538e+04  4.08813433e+04  1.96e-09 5.47e-04  3.25e-08  1396s
  92   4.08813482e+04  4.08813429e+04  1.01e-09 5.84e-04  1.73e-08  1407s
  93   4.08813452e+04  4.08813425e+04  4.82e-10 8.83e-05  8.33e-09  1418s
  94   4.08813427e+04  4.08813424e+04  1.57e-10 8.42e-05  3.06e-09  1431s

Barrier solved model in 94 iterations and 1431.25 seconds
Optimal objective 4.08813427e+04


Gurobi 8.1.0 (linux64, Python) logging started Wed May 22 16:56:34 2019

Academic license - for non-commercial use only
Parameter Threads unchanged
   Value: 0  Min: 0  Max: 1024  Default: 0
Changed value of parameter Crossover to 0
   Prev: -1  Min: -1  Max: 5  Default: -1
Changed value of parameter Method to 2
   Prev: -1  Min: -1  Max: 5  Default: -1
Warning for adding constraints: zero or small (< 1e-13) coefficients, ignored
Optimize a model with 74304 rows, 34834 columns and 2588305432 nonzeros
Coefficient statistics:
  Matrix range     [1e-13, 5e-05]
  Objective range  [2e-01, 1e+00]
  Bounds range     [1e+00, 1e+00]
  RHS range        [7e-05, 7e-05]
Presolve removed 0 rows and 0 columns (presolve time = 85s) ...
Presolve removed 0 rows and 0 columns (presolve time = 149s) ...
Presolve removed 0 rows and 0 columns (presolve time = 263s) ...
Presolve removed 0 rows and 0 columns (presolve time = 554s) ...
Presolve removed 0 rows and 0 columns (presolve time = 593s) ...
Presolve time: 660.37s
Presolved: 34834 rows, 109138 columns, 2588340266 nonzeros
Ordering time: 0.00s

Barrier statistics:
 AA' NZ     : 6.067e+08
 Factor NZ  : 6.067e+08 (roughly 5.0 GBytes of memory)
 Factor Ops : 1.409e+13 (roughly 170 seconds per iteration)
 Threads    : 24

                  Objective                Residual
Iter       Primal          Dual         Primal    Dual     Compl     Time
   0   4.55667172e+05  0.00000000e+00  0.00e+00 0.00e+00  6.01e+00  2676s
   1   1.64863026e+05  1.05236468e+04  0.00e+00 1.79e-01  1.33e+00  4047s
   2   6.44105635e+04  1.51312996e+04  0.00e+00 3.23e-02  3.65e-01  5405s
   3   4.00580090e+04  1.84301194e+04  0.00e+00 1.28e-02  1.55e-01  6615s
   4   2.80857712e+04  2.00970685e+04  0.00e+00 4.71e-03  5.68e-02  7833s
   5   2.44637121e+04  2.09036755e+04  0.00e+00 1.56e-03  2.52e-02  9023s
   6   2.27677963e+04  2.12737969e+04  0.00e+00 6.84e-04  1.06e-02  10229s
   7   2.21550424e+04  2.14658305e+04  0.00e+00 3.00e-04  4.87e-03  11423s
   8   2.20033971e+04  2.15396196e+04  0.00e+00 1.84e-04  3.27e-03  12585s
   9   2.18863541e+04  2.16000264e+04  0.00e+00 9.14e-05  2.01e-03  13780s
  10   2.18223435e+04  2.16258216e+04  0.00e+00 5.62e-05  1.38e-03  14936s
  11   2.17546701e+04  2.16411490e+04  0.00e+00 3.69e-05  7.98e-04  16122s
  12   2.17189301e+04  2.16512740e+04  0.00e+00 2.47e-05  4.77e-04  17312s
  13   2.17061467e+04  2.16572149e+04  0.00e+00 1.86e-05  3.45e-04  18488s
  14   2.16935570e+04  2.16625746e+04  0.00e+00 1.33e-05  2.19e-04  19636s
  15   2.16851634e+04  2.16674089e+04  0.00e+00 8.49e-06  1.26e-04  20811s
  16   2.16810747e+04  2.16709414e+04  0.00e+00 5.07e-06  7.19e-05  22022s
  17   2.16792281e+04  2.16730872e+04  0.00e+00 3.01e-06  4.36e-05  23176s
  18   2.16783973e+04  2.16738183e+04  0.00e+00 2.32e-06  3.25e-05  24349s
  19   2.16776494e+04  2.16749774e+04  0.00e+00 1.22e-06  1.89e-05  25553s
  20   2.16768474e+04  2.16758286e+04  0.00e+00 4.19e-07  7.22e-06  26828s
  21   2.16766304e+04  2.16762733e+04  0.00e+00 1.44e-08  2.50e-06  28143s
  22   2.16763711e+04  2.16763624e+04  1.76e-07 1.26e-11  6.06e-08  29476s
  23   2.16763710e+04  2.16763632e+04  4.35e-07 1.38e-11  5.46e-08  30738s
  24   2.16763709e+04  2.16763634e+04  6.66e-07 9.01e-12  5.27e-08  31906s
  25   2.16763708e+04  2.16763637e+04  1.03e-06 1.18e-11  5.02e-08  33181s
  26   2.16763707e+04  2.16763637e+04  1.39e-06 8.08e-12  4.97e-08  34404s
  27   2.16763707e+04  2.16763637e+04  1.87e-06 1.00e-11  4.92e-08  35639s
  28   2.16763707e+04  2.16763637e+04  2.50e-06 1.21e-11  4.88e-08  36832s
  29   2.16763706e+04  2.16763638e+04  4.60e-06 2.78e-11  4.79e-08  38084s
  30   2.16763705e+04  2.16763638e+04  9.28e-06 2.08e-11  4.76e-08  39251s
  31   2.16763704e+04  2.16763638e+04  1.27e-05 1.83e-11  4.60e-08  40475s
  32   2.16763703e+04  2.16763638e+04  2.18e-05 2.04e-11  4.44e-08  41748s
  33   2.16763698e+04  2.16763638e+04  3.79e-05 1.91e-11  4.33e-08  42930s
  34   2.16763690e+04  2.16763638e+04  6.00e-05 1.44e-11  4.07e-08  44183s
  35   2.16763686e+04  2.16763638e+04  8.81e-05 1.46e-11  3.35e-08  45429s
  36   2.16763661e+04  2.16763638e+04  1.45e-04 1.79e-11  1.61e-08  46690s
  37   2.16763643e+04  2.16763638e+04  1.42e-04 1.80e-11  1.26e-08  47925s
  38   2.16763633e+04  2.16763638e+04  1.31e-04 1.78e-11  1.13e-08  49142s
  39   2.16763631e+04  2.16763638e+04  1.31e-04 1.56e-11  1.12e-08  50327s
  40   2.16763620e+04  2.16763638e+04  1.35e-04 1.50e-11  1.12e-08  51481s
  41   2.16763633e+04  2.16763638e+04  1.35e-04 1.73e-11  9.59e-09  52634s
  42   2.16763643e+04  2.16763638e+04  1.13e-04 1.97e-11  8.99e-09  53810s
  43   2.16763642e+04  2.16763638e+04  1.09e-04 2.16e-11  8.59e-09  55000s
  44   2.16763639e+04  2.16763638e+04  1.05e-04 2.16e-11  8.52e-09  56173s
  45   2.16763634e+04  2.16763638e+04  9.68e-05 2.05e-11  8.28e-09  57336s
  46   2.16763636e+04  2.16763638e+04  9.76e-05 1.96e-11  8.12e-09  58485s
  47   2.16763638e+04  2.16763638e+04  9.42e-05 1.92e-11  7.95e-09  59671s
  48   2.16763642e+04  2.16763638e+04  8.78e-05 2.04e-11  7.61e-09  60860s
  49   2.16763655e+04  2.16763638e+04  1.44e-04 1.99e-11  6.62e-09  62038s
  50   2.16763655e+04  2.16763638e+04  1.44e-04 1.78e-11  6.58e-09  63227s
  51   2.16763654e+04  2.16763638e+04  1.43e-04 1.78e-11  6.58e-09  64382s
  52   2.16763662e+04  2.16763638e+04  1.67e-04 1.77e-11  6.58e-09  65572s
  53   2.16763663e+04  2.16763638e+04  1.68e-04 1.77e-11  6.58e-09  66778s
  54   2.16763666e+04  2.16763638e+04  1.78e-04 2.54e-11  6.17e-09  68002s
  55   2.16763666e+04  2.16763638e+04  1.79e-04 2.26e-11  6.17e-09  69191s
  56   2.16763668e+04  2.16763638e+04  1.78e-04 2.44e-11  6.16e-09  70390s
  57   2.16763671e+04  2.16763638e+04  1.66e-04 2.02e-11  6.01e-09  71629s
  58   2.16763665e+04  2.16763638e+04  1.65e-04 2.53e-11  5.75e-09  72844s
  59   2.16763663e+04  2.16763638e+04  1.62e-04 1.96e-11  5.74e-09  74038s
  60   2.16763664e+04  2.16763638e+04  1.59e-04 2.14e-11  5.61e-09  75213s
  61   2.16763627e+04  2.16763638e+04  2.02e-04 2.20e-11  3.46e-09  76514s
  62   2.16763627e+04  2.16763638e+04  2.01e-04 1.91e-11  3.45e-09  77701s
  63   2.16763622e+04  2.16763638e+04  1.89e-04 2.09e-11  3.31e-09  78894s
  64   2.16763628e+04  2.16763638e+04  1.99e-04 1.92e-11  3.31e-09  80115s
  65   2.16763658e+04  2.16763638e+04  1.50e-04 1.74e-11  2.10e-09  81312s
  66   2.16763658e+04  2.16763638e+04  1.69e-04 2.13e-11  2.08e-09  82494s
  67   2.16763657e+04  2.16763638e+04  1.60e-04 1.94e-11  2.03e-09  83686s
  68   2.16763658e+04  2.16763638e+04  1.48e-04 1.89e-11  1.84e-09  84895s
  69   2.16763657e+04  2.16763638e+04  1.49e-04 2.30e-11  1.84e-09  86085s
  70   2.16763639e+04  2.16763638e+04  1.65e-04 1.79e-11  1.64e-09  87337s
  71   2.16763638e+04  2.16763638e+04  1.62e-04 1.82e-11  1.61e-09  88540s
  72   2.16763662e+04  2.16763638e+04  1.31e-04 1.77e-11  1.33e-09  89768s
  73   2.16763653e+04  2.16763638e+04  1.72e-04 1.66e-11  1.07e-09  91031s
  74   2.16763643e+04  2.16763638e+04  1.43e-04 2.02e-11  1.01e-09  92273s
  75   2.16763648e+04  2.16763638e+04  1.93e-04 1.97e-11  5.57e-10  93492s
  76   2.16763643e+04  2.16763638e+04  1.49e-04 1.42e-11  4.78e-10  94782s
  77   2.16763671e+04  2.16763638e+04  1.91e-04 1.77e-11  3.62e-10  96004s
  78   2.16763671e+04  2.16763638e+04  1.78e-04 1.66e-11  3.48e-10  97191s
  79   2.16763661e+04  2.16763638e+04  1.58e-04 1.44e-11  2.82e-10  98370s
  80   2.16763660e+04  2.16763638e+04  1.58e-04 1.36e-11  2.75e-10  99557s
  81   2.16763663e+04  2.16763638e+04  1.51e-04 1.44e-11  2.66e-10  100734s
  82   2.16763660e+04  2.16763638e+04  1.53e-04 1.38e-11  2.66e-10  101894s
  83   2.16763662e+04  2.16763638e+04  1.53e-04 2.09e-11  2.65e-10  103059s
  84   2.16763661e+04  2.16763638e+04  1.43e-04 1.98e-11  2.25e-10  104222s
  85   2.16763661e+04  2.16763638e+04  1.38e-04 2.11e-11  2.22e-10  105406s
  86   2.16763667e+04  2.16763638e+04  1.60e-04 2.21e-11  2.22e-10  106614s
  87   2.16763667e+04  2.16763638e+04  1.61e-04 1.97e-11  2.22e-10  107812s
  88   2.16763666e+04  2.16763638e+04  1.61e-04 2.45e-11  2.22e-10  109012s
  89   2.16763651e+04  2.16763638e+04  1.51e-04 2.11e-11  1.79e-10  110241s
  90   2.16763654e+04  2.16763638e+04  1.38e-04 1.75e-11  1.70e-10  111464s
  91   2.16763653e+04  2.16763638e+04  1.39e-04 1.91e-11  1.70e-10  112661s
  92   2.16763652e+04  2.16763638e+04  1.28e-04 2.09e-11  1.56e-10  113906s
  93   2.16763653e+04  2.16763638e+04  1.30e-04 2.20e-11  1.54e-10  115092s
  94   2.16763655e+04  2.16763638e+04  1.28e-04 1.96e-11  1.54e-10  116284s
  95   2.16763631e+04  2.16763638e+04  1.23e-04 1.91e-11  1.23e-10  117470s
  96   2.16763638e+04  2.16763638e+04  1.67e-04 2.07e-11  1.06e-10  118678s
  97   2.16763640e+04  2.16763638e+04  1.50e-04 2.56e-11  8.65e-11  119912s
  98   2.16763640e+04  2.16763638e+04  1.41e-04 1.90e-11  8.36e-11  121145s

Barrier performed 98 iterations in 121145.35 seconds
Sub-optimal termination - objective 2.16763711e+04

Parameter Threads unchanged
   Value: 0  Min: 0  Max: 1024  Default: 0
Changed value of parameter Crossover to 0
   Prev: -1  Min: -1  Max: 5  Default: -1
Changed value of parameter Method to 2
   Prev: -1  Min: -1  Max: 5  Default: -1
Warning for adding constraints: zero or small (< 1e-13) coefficients, ignored
Optimize a model with 74304 rows, 21304 columns and 1582972280 nonzeros
Coefficient statistics:
  Matrix range     [1e-13, 1e-05]
  Objective range  [1e+00, 1e+00]
  Bounds range     [1e+00, 1e+00]
  RHS range        [1e-07, 1e-02]
Presolve removed 0 rows and 0 columns (presolve time = 54s) ...
Presolve removed 0 rows and 0 columns (presolve time = 95s) ...
Presolve removed 0 rows and 0 columns (presolve time = 167s) ...
Presolve removed 0 rows and 0 columns (presolve time = 313s) ...
Presolve removed 0 rows and 0 columns (presolve time = 331s) ...
Presolve time: 374.76s
Presolved: 21304 rows, 95608 columns, 1582993584 nonzeros
Ordering time: 0.00s

Barrier statistics:
 AA' NZ     : 2.269e+08
 Factor NZ  : 2.269e+08 (roughly 2.0 GBytes of memory)
 Factor Ops : 3.223e+12 (roughly 50 seconds per iteration)
 Threads    : 24

                  Objective                Residual
Iter       Primal          Dual         Primal    Dual     Compl     Time
   0   1.73367598e+06  1.30046007e+04  0.00e+00 4.85e+00  5.77e+02   900s
   1   1.61022276e+06  1.35801597e+04  0.00e+00 4.41e+00  3.44e+01  1277s
   2   5.74086197e+05  1.22564271e+04  0.00e+00 1.34e+00  7.95e+00  1661s
   3   1.86923644e+05  1.15301195e+04  0.00e+00 5.06e-01  2.17e+00  2043s
   4   5.54519594e+04  1.12548333e+04  0.00e+00 9.99e-02  4.32e-01  2437s
   5   1.97081135e+04  1.15384977e+04  0.00e+00 1.48e-02  7.21e-02  2831s
   6   1.44874929e+04  1.18604817e+04  0.00e+00 5.34e-03  2.29e-02  3225s
   7   1.34112926e+04  1.19915102e+04  0.00e+00 2.74e-03  1.24e-02  3606s
   8   1.25355258e+04  1.21424050e+04  0.00e+00 6.16e-04  3.41e-03  4017s
   9   1.23447124e+04  1.21949390e+04  0.00e+00 2.36e-04  1.30e-03  4412s
  10   1.22794943e+04  1.22139754e+04  0.00e+00 1.30e-04  5.71e-04  4813s
  11   1.22563463e+04  1.22249015e+04  0.00e+00 7.49e-05  2.75e-04  5203s
  12   1.22493739e+04  1.22305877e+04  0.00e+00 4.48e-05  1.64e-04  5597s
  13   1.22423381e+04  1.22357604e+04  0.00e+00 1.57e-05  5.75e-05  6045s
  14   1.22400578e+04  1.22380968e+04  0.00e+00 3.90e-06  1.71e-05  6513s
  15   1.22395289e+04  1.22386460e+04  0.00e+00 1.48e-06  7.67e-06  6929s
  16   1.22393497e+04  1.22389198e+04  0.00e+00 3.15e-07  3.70e-06  7378s
  17   1.22391546e+04  1.22389604e+04  0.00e+00 1.53e-07  1.67e-06  7776s
  18   1.22390133e+04  1.22389929e+04  8.50e-08 2.31e-08  1.77e-07  8238s
  19   1.22390022e+04  1.22389991e+04  2.80e-08 2.48e-09  2.66e-08  8745s
  20   1.22390022e+04  1.22389994e+04  7.99e-08 1.85e-09  2.44e-08  9164s
  21   1.22390022e+04  1.22389996e+04  9.05e-08 1.31e-09  2.26e-08  9629s
  22   1.22390021e+04  1.22389999e+04  2.33e-07 4.45e-10  1.96e-08  10084s
  23   1.22390019e+04  1.22390000e+04  4.55e-07 1.71e-10  1.82e-08  10513s
  24   1.22390021e+04  1.22390000e+04  2.39e-07 1.45e-10  1.80e-08  10920s
  25   1.22390020e+04  1.22390000e+04  3.16e-07 1.19e-10  1.78e-08  11315s
  26   1.22390021e+04  1.22390000e+04  4.40e-07 9.39e-11  1.75e-08  11711s
  27   1.22390021e+04  1.22390000e+04  6.50e-07 9.48e-11  1.75e-08  12104s
  28   1.22390020e+04  1.22390000e+04  7.63e-07 3.00e-11  1.61e-08  12494s
  29   1.22390020e+04  1.22390000e+04  1.09e-06 2.67e-11  1.56e-08  12886s
  30   1.22390022e+04  1.22390000e+04  1.26e-06 2.63e-11  1.55e-08  13283s
  31   1.22390015e+04  1.22390000e+04  1.24e-06 2.31e-11  1.54e-08  13670s
  32   1.22390011e+04  1.22390000e+04  1.78e-06 1.95e-11  1.53e-08  14068s
  33   1.22390007e+04  1.22390000e+04  2.16e-06 2.18e-11  1.53e-08  14472s
  34   1.22390002e+04  1.22390000e+04  3.38e-06 1.22e-11  1.40e-08  14868s
  35   1.22389995e+04  1.22390000e+04  4.21e-06 1.58e-11  1.34e-08  15254s
  36   1.22389992e+04  1.22390000e+04  5.82e-06 1.86e-11  1.34e-08  15653s
  37   1.22389998e+04  1.22390000e+04  6.74e-06 2.00e-11  1.31e-08  16053s
  38   1.22390003e+04  1.22390000e+04  8.47e-06 1.26e-11  1.10e-08  16448s
  39   1.22390007e+04  1.22390000e+04  8.06e-06 1.61e-11  9.24e-09  16842s
  40   1.22389975e+04  1.22390000e+04  1.27e-05 1.55e-11  9.24e-09  17242s
  41   1.22389985e+04  1.22390000e+04  1.09e-05 1.49e-11  8.25e-09  17629s
  42   1.22389994e+04  1.22390000e+04  1.28e-05 1.30e-11  7.11e-09  18010s
  43   1.22389949e+04  1.22390000e+04  1.42e-05 1.47e-11  4.53e-09  18401s
  44   1.22389953e+04  1.22390000e+04  1.38e-05 1.86e-11  4.22e-09  18810s
  45   1.22390055e+04  1.22390000e+04  2.24e-05 1.61e-11  3.88e-09  19244s
  46   1.22390108e+04  1.22390000e+04  1.92e-05 1.44e-11  2.26e-09  19657s
  47   1.22390032e+04  1.22390000e+04  1.81e-05 1.24e-11  1.84e-09  20051s
  48   1.22390032e+04  1.22390000e+04  1.93e-05 1.41e-11  1.76e-09  20467s
  49   1.22390037e+04  1.22390000e+04  1.20e-05 2.05e-11  8.98e-10  20903s
  50   1.22390042e+04  1.22390000e+04  1.25e-05 1.81e-11  8.77e-10  21313s
  51   1.22390060e+04  1.22390000e+04  1.35e-05 2.23e-11  6.02e-10  21714s
  52   1.22390031e+04  1.22390000e+04  1.43e-05 2.34e-11  5.43e-10  22123s
  53   1.22390068e+04  1.22390000e+04  1.60e-05 2.23e-11  3.03e-10  22535s
  54   1.22390018e+04  1.22390000e+04  1.50e-05 2.07e-11  2.73e-10  22969s
  55   1.22389999e+04  1.22390000e+04  2.38e-05 1.39e-11  2.61e-10  23390s
  56   1.22389995e+04  1.22390000e+04  2.50e-05 1.76e-11  2.37e-10  23794s
  57   1.22389983e+04  1.22390000e+04  2.70e-05 1.82e-11  1.93e-10  24190s
  58   1.22389989e+04  1.22390000e+04  2.54e-05 1.53e-11  1.77e-10  24599s
  59   1.22389993e+04  1.22390000e+04  2.98e-05 2.11e-11  9.74e-11  25027s

Barrier performed 59 iterations in 25026.63 seconds
Sub-optimal termination - objective 1.22390022e+04


Gurobi 8.1.0 (mac64, Python) logging started Tue May 28 15:22:48 2019

Academic license - for non-commercial use only
Parameter Threads unchanged
   Value: 0  Min: 0  Max: 1024  Default: 0
Changed value of parameter Crossover to 0
   Prev: -1  Min: -1  Max: 5  Default: -1
Changed value of parameter Method to 2
   Prev: -1  Min: -1  Max: 5  Default: -1
